SCIP Status        : solving was interrupted [time limit reached]
Total Time         :    3600.01
  solving          :    3600.00
  presolving       :       0.17 (included in solving)
  reading          :       0.01
  copying          :       0.08 (10 #copies) (minimal 0.00, maximal 0.01, average 0.01)
Original Problem   :
  Problem name     : benchmark/block2_55_11_10_13.design
  Variables        : 1466 (55 binary, 0 integer, 0 implicit integer, 1411 continuous)
  Constraints      : 2028 initial, 2028 maximal
  Objective        : minimize, 1 non-zeros (abs.min = 1, abs.max = 1)
Presolved Problem  :
  Problem name     : t_benchmark/block2_55_11_10_13.design
  Variables        : 2128 (55 binary, 0 integer, 0 implicit integer, 2073 continuous)
  Constraints      : 2028 initial, 2035 maximal
  Objective        : minimize, 1 non-zeros (abs.min = 1, abs.max = 1)
  Nonzeros         : 6922 constraint, 0 clique table
Presolvers         :   ExecTime  SetupTime  Calls  FixedVars   AggrVars   ChgTypes  ChgBounds   AddHoles    DelCons    AddCons   ChgSides   ChgCoefs
  boundshift       :       0.00       0.00      0          0          0          0          0          0          0          0          0          0
  convertinttobin  :       0.00       0.00      0          0          0          0          0          0          0          0          0          0
  domcol           :       0.00       0.00      1          0          0          0          0          0          0          0          0          0
  dualagg          :       0.00       0.00      0          0          0          0          0          0          0          0          0          0
  dualcomp         :       0.00       0.00      1          0          0          0          0          0          0          0          0          0
  dualinfer        :       0.00       0.00      0          0          0          0          0          0          0          0          0          0
  dualsparsify     :       0.00       0.00      1          0          0          0          0          0          0          0          0          0
  gateextraction   :       0.00       0.00      0          0          0          0          0          0          0          0          0          0
  implics          :       0.00       0.00      1          0          0          0          0          0          0          0          0          0
  inttobinary      :       0.00       0.00      0          0          0          0          0          0          0          0          0          0
  qpkktref         :       0.00       0.00      0          0          0          0          0          0          0          0          0          0
  redvub           :       0.00       0.00      0          0          0          0          0          0          0          0          0          0
  sparsify         :       0.00       0.00      1          0          0          0          0          0          0          0          0          0
  stuffing         :       0.00       0.00      0          0          0          0          0          0          0          0          0          0
  trivial          :       0.00       0.00      2         45          0          0          0          0          0          0          0          0
  tworowbnd        :       0.00       0.00      0          0          0          0          0          0          0          0          0          0
  dualfix          :       0.00       0.00      2         45          0          0          0          0          0          0          0          0
  genvbounds       :       0.00       0.00      0          0          0          0          0          0          0          0          0          0
  probing          :       0.01       0.00      1          0          0          0          0          0          0          0          0          0
  pseudoobj        :       0.00       0.00      0          0          0          0          0          0          0          0          0          0
  symmetry         :       0.01       0.00      1          0          0          0          0          0          0          0          0          0
  vbounds          :       0.00       0.00      0          0          0          0          0          0          0          0          0          0
  linear           :       0.01       0.00      3          0          0          0          0          0          0          0          0          0
  nonlinear        :       0.13       0.02      4          0          0          0        100          0          0          0          0          0
  benders          :       0.00       0.00      0          0          0          0          0          0          0          0          0          0
  components       :       0.00       0.00      1          0          0          0          0          0          0          0          0          0
  root node        :          -          -      -          0          -          -       3654          -          -          -          -          -
Constraints        :     Number  MaxNumber  #Separate #Propagate    #EnfoLP    #EnfoRelax  #EnfoPS    #Check   #ResProp    Cutoffs    DomReds       Cuts    Applied      Conss   Children
  benderslp        :          0          0          0          0      15874          0          0      10900          0          0          0          0          0          0          0
  integral         :          0          0          0          0      15874          0          0      10900          0          0       7002          0          0          0      31204
  linear           :       1377+      1384         77     487672          0          0          0      10894          0         57       8305          3          0          0          0
  nonlinear        :        651        651     136122     487616          0          0          0       9975          0        152     998780    2655564    2630317          0          0
  benders          :          0          0          0          0          0          0          0          7          0          0          0          0          0          0          0
  countsols        :          0          0          0          0          0          0          0          7          0          0          0          0          0          0          0
  components       :          0          0          0          0          0          0          0          0          0          0          0          0          0          0          0
Constraint Timings :  TotalTime  SetupTime   Separate  Propagate     EnfoLP     EnfoPS     EnfoRelax   Check    ResProp    SB-Prop
  benderslp        :       0.02       0.00       0.00       0.00       0.01       0.00       0.00       0.01       0.00       0.00
  integral         :      17.26       0.00       0.00       0.00      17.26       0.00       0.00       0.00       0.00       0.00
  linear           :       8.70       0.00       0.01       8.48       0.00       0.00       0.00       0.21       0.00       0.00
  nonlinear        :     339.04       0.02     263.26      69.73       0.00       0.00       0.00       5.70       0.00       0.33
  benders          :       0.00       0.00       0.00       0.00       0.00       0.00       0.00       0.00       0.00       0.00
  countsols        :       0.00       0.00       0.00       0.00       0.00       0.00       0.00       0.00       0.00       0.00
  components       :       0.06       0.00       0.00       0.06       0.00       0.00       0.00       0.00       0.00       0.00
Propagators        : #Propagate   #ResProp    Cutoffs    DomReds
  dualfix          :          3          0          0          0
  genvbounds       :          0          0          0          0
  nlobbt           :          0          0          0          0
  obbt             :          0          0          0          0
  probing          :          0          0          0          0
  pseudoobj        :      47848          0          0         16
  redcost          :     167876          0          0          0
  rootredcost      :          5          0          0       2985
  symmetry         :          0          0          0          0
  vbounds          :     125395          0          0          0
Propagator Timings :  TotalTime  SetupTime   Presolve  Propagate    ResProp    SB-Prop
  dualfix          :       0.00       0.00       0.00       0.00       0.00       0.00
  genvbounds       :       0.32       0.00       0.00       0.32       0.00       0.00
  nlobbt           :       0.00       0.00       0.00       0.00       0.00       0.00
  obbt             :       0.00       0.00       0.00       0.00       0.00       0.00
  probing          :       0.01       0.00       0.01       0.00       0.00       0.00
  pseudoobj        :       0.43       0.00       0.00       0.43       0.00       0.00
  redcost          :       3.78       0.00       0.00       3.76       0.00       0.02
  rootredcost      :       0.22       0.00       0.00       0.22       0.00       0.00
  symmetry         :       0.18       0.00       0.01       0.17       0.00       0.00
  vbounds          :       0.22       0.00       0.00       0.22       0.00       0.00
Conflict Analysis  :       Time      Calls    Success    DomReds  Conflicts   Literals    Reconvs ReconvLits   Dualrays   Nonzeros   LP Iters   (pool size: [--,--])
  propagation      :       0.00          7          0          -          0        0.0          0        0.0          -          -          -
  infeasible LP    :       0.00          2          2          -          0        0.0          0        0.0        325      221.3          0
  bound exceed. LP :       3.31       1040        323          -          0        0.0          0        0.0          0        0.0      14593
  strong branching :       0.00          0          0          -          0        0.0          0        0.0          -          -          0
  pseudo solution  :       0.00          0          0          -          0        0.0          0        0.0          -          -          -
  applied globally :       0.00          -          -          0          0        0.0          -          -        325          -          -
  applied locally  :          -          -          -          0          0        0.0          -          -          0          -          -
Separators         :   ExecTime  SetupTime      Calls  RootCalls    Cutoffs    DomReds  FoundCuts ViaPoolAdd  DirectAdd    Applied ViaPoolApp  DirectApp      Conss
  cut pool         :       0.00          -       1676         78          -          -         26         55          -          -          -          -          -    (maximal pool size:          6)
  aggregation      :      10.53       0.00       6397         77          0          0          0          0          0          0          0          0          0
  > cmir           :          -          -          -          -          -          -          -          0          0          0          0          0          -
  > flowcover      :          -          -          -          -          -          -          -          0          0          0          0          0          -
  > knapsackcover  :          -          -          -          -          -          -          -          0          0          0          0          0          -
  cgmip            :       0.00       0.00          0          0          0          0          0          0          0          0          0          0          0
  clique           :       0.00       0.00          1          1          0          0          0          0          0          0          0          0          0
  closecuts        :       0.00       0.00          0          0          0          0          0          0          0          0          0          0          0
  convexproj       :       0.00       0.00          0          0          0          0          0          0          0          0          0          0          0
  disjunctive      :       0.00       0.00          0          0          0          0          0          0          0          0          0          0          0
  eccuts           :       0.00       0.00          0          0          0          0          0          0          0          0          0          0          0
  gauge            :       0.00       0.00          0          0          0          0          0          0          0          0          0          0          0
  gomory           :       3.69       0.00       3395         10          0          0         26         55          0         16         16          0          0
  > gomorymi       :          -          -          -          -          -          -          -         55          0         16         16          0          -
  > strongcg       :          -          -          -          -          -          -          -          0          0          0          0          0          -
  impliedbounds    :       0.42       0.00       6397         77          0          0          0          0          0          0          0          0          0
  interminor       :       0.00       0.00          0          0          0          0          0          0          0          0          0          0          0
  intobj           :       0.00       0.00          0          0          0          0          0          0          0          0          0          0          0
  mcf              :       0.00       0.00          3          3          0          0          0          0          0          0          0          0          0
  minor            :       0.00       0.00          0          0          0          0          0          0          0          0          0          0          0
  mixing           :       0.27       0.00       6397         77          0          0          0          0          0          0          0          0          0
  oddcycle         :       0.00       0.00          0          0          0          0          0          0          0          0          0          0          0
  rapidlearning    :       0.00       0.00          0          0          0          0          0          0          0          0          0          0          0
  rlt              :       0.01       0.00         10         10          0          0          0          0          0          0          0          0          0
  zerohalf         :       1.48       0.00       3405         20          0          0          0          0          0          0          0          0          0
Cutselectors       :   ExecTime  SetupTime      Calls  RootCalls   Selected     Forced   Filtered  RootSelec   RootForc   RootFilt 
  hybrid           :       1.87       0.00     136122         77    2630333          0      25289       4179          0        196
Pricers            :   ExecTime  SetupTime      Calls       Vars
  problem variables:       0.00          -          0          0
Branching Rules    :   ExecTime  SetupTime   BranchLP  BranchExt   BranchPS    Cutoffs    DomReds       Cuts      Conss   Children
  allfullstrong    :       0.00       0.00          0          0          0          0          0          0          0          0
  cloud            :       0.00       0.00          0          0          0          0          0          0          0          0
  distribution     :       0.00       0.00          0          0          0          0          0          0          0          0
  fullstrong       :       0.00       0.00          0          0          0          0          0          0          0          0
  inference        :       0.00       0.00          0          0          0          0          0          0          0          0
  leastinf         :       0.00       0.00          0          0          0          0          0          0          0          0
  lookahead        :       0.00       0.00          0          0          0          0          0          0          0          0
  mostinf          :       0.00       0.00          0          0          0          0          0          0          0          0
  multaggr         :       0.00       0.00          0          0          0          0          0          0          0          0
  nodereopt        :       0.00       0.00          0          0          0          0          0          0          0          0
  pscost           :       0.00       0.00          0          0          0          0          0          0          0          0
  random           :       0.00       0.00          0          0          0          0          0          0          0          0
  relpscost        :      17.22       0.00      15874          0          0          0       7002          0          0      31204
  vanillafullstrong:       0.00       0.00          0          0          0          0          0          0          0          0
Primal Heuristics  :   ExecTime  SetupTime      Calls      Found       Best
  LP solutions     :       0.00          -          -          0          0
  relax solutions  :       0.00          -          -          0          0
  pseudo solutions :       0.00          -          -          0          0
  strong branching :       0.03          -          -          0          0
  actconsdiving    :       0.00       0.00          0          0          0
  adaptivediving   :       3.21       0.00         47          0          0
  alns             :      10.62       0.00          9          2          2
  bound            :       0.00       0.00          0          0          0
  clique           :       0.00       0.00          0          0          0
  coefdiving       :       0.00       0.00          0          0          0
  completesol      :       0.00       0.00          0          0          0
  conflictdiving   :      66.63       0.00        585          0          0
  crossover        :       9.50       0.00          1          1          1
  dins             :       0.00       0.00          0          0          0
  distributiondivin:     386.93       0.00        745          0          0
  dps              :       0.00       0.00          0          0          0
  dualval          :       0.00       0.00          0          0          0
  farkasdiving     :       0.00       0.00          0          0          0
  feaspump         :       9.11       0.00         31          0          0
  fixandinfer      :       0.00       0.00          0          0          0
  fracdiving       :      64.36       0.00        745          0          0
  gins             :       0.01       0.00          0          0          0
  guideddiving     :      70.19       0.00        745          0          0
  indicator        :       0.10       0.00          0          0          0
  indicatordiving  :       0.00       0.00          0          0          0
  intdiving        :       0.00       0.00          0          0          0
  intshifting      :       1.76       0.00         39          0          0
  linesearchdiving :      51.61       0.00        746          0          0
  localbranching   :       0.00       0.00          0          0          0
  locks            :       0.04       0.00          1          0          0
  lpface           :       0.01       0.00          0          0          0
  mpec             :      12.87       0.00          1          0          0
  multistart       :       0.00       0.00          0          0          0
  mutation         :       0.00       0.00          0          0          0
  nlpdiving        :       4.96       0.00          1          0          0
  objpscostdiving  :       6.59       0.00          6          0          0
  octane           :       0.00       0.00          0          0          0
  ofins            :       0.01       0.00          0          0          0
  oneopt           :       0.00       0.00          6          0          0
  padm             :       0.00       0.00          0          0          0
  proximity        :       0.00       0.00          0          0          0
  pscostdiving     :      76.21       0.00        658          0          0
  randrounding     :       1.08       0.00       1158          0          0
  rens             :       0.00       0.00          0          0          0
  reoptsols        :       0.00       0.00          0          0          0
  repair           :       0.00       0.00          0          0          0
  rins             :       0.00       0.00          0          0          0
  rootsoldiving    :       3.11       0.00         17          0          0
  rounding         :       0.79       0.00       5543          0          0
  shiftandpropagate:       0.01       0.00          1          0          0
  shifting         :       1.48       0.00       1199          0          0
  simplerounding   :       0.10       0.00          0          0          0
  subnlp           :       6.49       0.00         20          3          3
  trivial          :       0.00       0.00          2          0          0
  trivialnegation  :       0.00       0.00          0          0          0
  trustregion      :       0.00       0.00          0          0          0
  trysol           :       0.06       0.00          0          0          0
  twoopt           :       0.00       0.00          0          0          0
  undercover       :       0.25       0.00          1          0          0
  vbounds          :       0.00       0.00          0          0          0
  veclendiving     :      36.82       0.00        745          0          0
  zeroobj          :       0.00       0.00          0          0          0
  zirounding       :       0.08       0.00       1000          0          0
  other solutions  :          -          -          -          0          -
Diving (single)    :      Calls      Nodes   LP Iters Backtracks  Conflicts   MinDepth   MaxDepth   AvgDepth  RoundSols  NLeafSols  MinSolDpt  MaxSolDpt  AvgSolDpt
  actconsdiving    :          0          -          -          -          -          -          -          -          -          -          -          -          -
  coefdiving       :          0          -          -          -          -          -          -          -          -          -          -          -          -
  conflictdiving   :        585      19204     558165        703        233         16         55       45.3          0          -          -          -          -
  distributiondivin:        745      16966     564110        104         76         17         55       38.6          0          -          -          -          -
  farkasdiving     :          0          -          -          -          -          -          -          -          -          -          -          -          -
  fracdiving       :        745      27982     560375          4          2         48         55       53.6          0          -          -          -          -
  guideddiving     :        745      25714     591265         27          6         42         55       51.0          0          -          -          -          -
  indicatordiving  :          0          -          -          -          -          -          -          -          -          -          -          -          -
  linesearchdiving :        746      20511     465655         17          4         32         54       44.0          0          -          -          -          -
  pscostdiving     :        658      26103     653553          2          0         50         55       54.5          0          -          -          -          -
  veclendiving     :        745       5394     336739         43          4         16         31       23.4          0          -          -          -          -
Diving (adaptive)  :      Calls      Nodes   LP Iters Backtracks  Conflicts   MinDepth   MaxDepth   AvgDepth  RoundSols  NLeafSols  MinSolDpt  MaxSolDpt  AvgSolDpt
  actconsdiving    :         17        123       8806          0          0         18         30       22.8          0          -          -          -          -
  coefdiving       :         13         93       6439          3          0         18         26       22.1          0          -          -          -          -
  conflictdiving   :          0          -          -          -          -          -          -          -          -          -          -          -          -
  distributiondivin:          0          -          -          -          -          -          -          -          -          -          -          -          -
  farkasdiving     :          0          -          -          -          -          -          -          -          -          -          -          -          -
  fracdiving       :          2         75       1616          0          0         52         53       52.5          0          -          -          -          -
  guideddiving     :          2         68       1663          0          0         50         55       52.5          0          -          -          -          -
  indicatordiving  :          0          -          -          -          -          -          -          -          -          -          -          -          -
  linesearchdiving :          1         31        730          0          0         42         42       42.0          0          -          -          -          -
  pscostdiving     :          8        319       7774          0          0         55         55       55.0          0          -          -          -          -
  veclendiving     :          4         34       1800          0          0         18         25       21.5          0          -          -          -          -
Neighborhoods      :      Calls  SetupTime  SolveTime SolveNodes       Sols       Best       Exp3  EpsGreedy        UCB TgtFixRate  Opt  Inf Node Stal  Sol  Usr Othr Actv
  rens             :          1       0.01       0.01          0          0          0    0.00000   -1.00000    0.56070      0.700    0    1    0    0    0    0    0    1
  rins             :          1       0.01       1.43         23          1          1    0.00000   -1.00000    0.95862      0.700    1    0    0    0    0    0    0    1
  mutation         :          1       0.01       0.63          9          0          0    0.00000   -1.00000    0.55252      0.700    0    1    0    0    0    0    0    1
  localbranching   :          1       0.02       2.08         27          0          0    0.00000   -1.00000    0.53124      0.700    0    1    0    0    0    0    0    1
  crossover        :          1       0.01       0.63         11          0          0    0.00000   -1.00000    0.55270      0.700    0    1    0    0    0    0    0    1
  proximity        :          2       0.04       3.21         63          1          1    0.00000   -1.00000    0.65270      0.850    1    0    0    1    0    0    0    1
  zeroobjective    :          1       0.01       0.00          0          0          0    0.00000   -1.00000    0.06070      0.900    0    0    0    0    0    0    1    1
  dins             :          1       0.02       2.43         29          0          0    0.00000   -1.00000    0.52906      0.700    0    1    0    0    0    0    0    1
  trustregion      :          0       0.00       0.00          0          0          0    0.00000   -1.00000    1.00000      0.900    0    0    0    0    0    0    0    0
Expressions        :   #IntEval  IntEvalTi   #RevProp  RevPropTi    DomReds    Cutoffs  #Estimate  EstimTime  Branching  #Simplify SimplifyTi Simplified
  pow              :    9836454       2.79    3607988       1.22    6355132          0       1022       0.00          0       1420       0.01          0
  prod             :    8443051       3.22      44806       0.18        262          0          0       0.00          0       1102       0.00        550
  sum              :    9449535       2.80    5660888       2.23     479806         34        101       0.00          0       1402       0.00        101
  var              :   23108825       6.21          0       0.00          0          0          0       0.00          0       3821       0.00          0
  varidx           :          0       0.00          0       0.00          0          0          0       0.00          0          0       0.00          0
Nonlinear Conshdlr :   WeakSepa  TightenLP DespTghtLP DespBranch DespCutoff    ForceLP  CanonTime
  enforce          :          0          0          0          0          0          0
  presolve         :                                                                         0.09
Nlhdlrs            :    Detects  DetectAll DetectTime   #IntEval  IntEvalTi   #RevProp  RevPropTi    DomReds    Cutoffs   #Enforce   EnfoTime       Cuts  Branching
  soc              :        550        550       0.00          0       0.00          0       0.00          0          0   52852979     107.17    2518520          0
  convex           :          1          1       0.01          0       0.00          0       0.00          0          0     136123       1.04     136122          0
  concave          :          0          0       0.00          0       0.00          0       0.00          0          0          0       0.00          0          0
  quotient         :          0          0       0.00          0       0.00          0       0.00          0          0          0       0.00          0          0
  quadratic        :          0          0       0.00          0       0.00          0       0.00          0          0          0       0.00          0          0
  default          :       3228      16140       0.00   27726294      21.29    9317780      21.84    6835200         34       1123       0.00        922          0
  bilinear         :          0          0       0.00          0       0.00          0       0.00          0          0          0       0.00          0          0
  perspective      :          0          0       0.00          0       0.00          0       0.00          0          0          0       0.00          0          0
LP                 :       Time      Calls Iterations  Iter/call   Iter/sec  Time-0-It Calls-0-It    ItLimit
  primal LP        :     592.53      18071          0       0.00       0.00     592.49      18071
  dual LP          :    1712.09     152011   12847433      84.67    7503.95       0.10        284
  lex dual LP      :       0.00          0          0       0.00          -
  barrier LP       :       0.00          0          0       0.00          -       0.00          0
  resolve instable :       0.00          0          0       0.00          -
  diving/probing LP:     326.38      25431    3865225     151.99   11842.71
  strong branching :      11.73        657      95328     145.10    8126.85          -          -         48
    (at root node) :          -         23        470      20.43          -
  conflict analysis:       1.95       1579      14593       9.24    7483.59
NLP relaxation     :
  solve time       :       4.91 (12 calls)
  convexity        :  nonconvex (77 linear rows, 101 convex ineq., 550 nonconvex ineq., 0 nonlinear eq. or two-sided ineq.)
NLP Solvers        :  #Problems  ProblemTi    #Solves  SolveTime      #Iter  Time/Iter      #Okay #TimeLimit #IterLimit #LObjLimit #Interrupt  #NumError #EvalError  #OutOfMem #LicenseEr #OtherTerm   #GlobOpt    #LocOpt  #Feasible #LocInfeas #GlobInfea #Unbounded   #Unknown
  ipopt            :         22       8.69         34      23.06       1785       0.01         29          0          5          0          0          0          0          0          0          0          0         12          3         16          0          0          3
B&B Tree           :
  number of runs   :          1
  nodes            :      15603 (15602 internal, 1 leaves)
  feasible leaves  :          0
  infeas. leaves   :          0
  objective leaves :          0
  nodes (total)    :      15603 (15602 internal, 1 leaves)
  nodes left       :      15603
  max depth        :         23
  max depth (total):         23
  backtracks       :       5174 (33.2%)
  early backtracks :          0 (0.0%)
  nodes exc. ref.  :          0 (0.0%)
  delayed cutoffs  :          0
  repropagations   :         10 (1154 domain reductions, 0 cutoffs)
  avg switch length:       8.33
  switching time   :     524.21
Estim. Tree Size   :         -1
Estimation Tree    : 31205 nodes (15602 visited, 15602 internal, 0 leaves, 15603 open), weight: 0.0000 completed 0.0519
Estimations        :      estim      value      trend resolution     smooth
  wbe              :         -1          -          -          -          -
  tree-profile     :         -1          -          -          -          -
  gap              :         -1    0.83483                     1           
  tree-weight      :         -1    0.00000                     1           
  leaf-frequency   :         -1   -0.00003                     1           
  ssg              :         -1    0.91813                     1           
  open-nodes       :         -1 15603.00000                     1           
Root Node          :
  First LP value   : -2.43157505831884e+00
  First LP Iters   :       1913 (21255.56 Iter/sec)
  First LP Time    :       0.09
  Final Dual Bound : -2.04529357240148e+00
  Final Root Iters :      12040
  Root LP Estimate : -1.82882810450471e+00
Solution           :
  Solutions found  :          6 (6 improvements)
  First Solution   : -1.34928550284841e+00   (in run 1, after 1 nodes, 0.94 seconds, depth 0, found by <locks>)
  Gap First Sol.   :      80.21 %
  Gap Last Sol.    :      21.83 %
  Primal Bound     : -1.64375435714648e+00   (in run 1, after 2420 nodes, 539.88 seconds, depth 11, found by <guideddiving>)
  Dual Bound       : -1.96895949700830e+00
  Gap              :      19.78 %
Integrals          :      Total       Avg%
  primal-dual      :   64723.88      17.98
  primal-ref       :          -          - (not evaluated)
  dual-ref         :          -          - (not evaluated)
